words_hard_train/6511.qaiger
aag 122 16 0 1 106
2
4
8
12
14
22
28
36
44
46
50
54
58
62
66
184
245
6 2 4
10 8 4
16 13 15
18 17 4
20 11 19
24 22 4
26 20 25
30 26 29
32 31 4
34 7 33
38 35 36
40 34 37
42 39 41
48 44 46
52 48 50
56 52 54
60 56 58
64 60 62
68 65 67
70 64 66
72 69 71
74 42 72
76 12 45
78 12 4
80 78 15
82 79 14
84 81 83
86 45 47
88 87 49
90 84 89
92 85 88
94 91 93
96 76 94
98 97 93
100 19 9
102 10 17
104 101 103
106 49 51
108 107 53
110 105 109
112 104 108
114 111 113
116 99 114
118 117 113
120 21 23
122 20 22
124 121 123
126 53 55
128 127 57
130 124 129
132 125 128
134 131 133
136 119 134
138 137 133
140 27 28
142 141 31
144 57 59
146 145 61
148 143 147
150 142 146
152 149 151
154 139 152
156 155 151
158 33 2
160 32 3
162 159 161
164 61 63
166 165 65
168 162 167
170 163 166
172 169 171
174 157 172
176 175 171
178 75 176
180 43 73
182 179 181
186 70 185
188 71 184
190 187 189
192 40 4
194 191 192
196 190 193
198 195 197
200 183 198
202 182 199
204 201 203
206 77 95
208 207 97
210 138 153
212 211 155
214 209 213
216 156 173
218 217 175
220 214 219
222 98 115
224 223 117
226 220 225
228 181 199
230 118 135
232 231 137
234 229 233
236 198 75
238 237 177
240 234 239
242 226 240
244 204 243
i0 2 y1[5]
i1 2 y1[7]
i2 2 y1[2]
i3 2 y1[0]
i4 2 y1[1]
i5 2 y1[3]
i6 2 y1[4]
i7 2 y1[6]
i8 1 x1[0]
i9 1 x1[1]
i10 1 x1[2]
i11 1 x1[3]
i12 1 x1[4]
i13 1 x1[5]
i14 1 x1[6]
i15 1 x1[7]
o0 bv[0]
c
simplified
  <=
    add
      abs
        2 y1
      add
        1
        1 x1
    1
