words_hard_train/6511.qaiger.qdimacs
p cnf 122 319
a 33 22 23 25 27 92 29 31 0
e 1 2 3 4 5 6 7 8 9 10 11 12 13 14 15 16 17 18 19 20 21 24 26 28 30 32 34 35 36 37 38 39 40 41 42 43 44 45 46 47 48 49 50 51 52 53 54 55 56 57 58 59 60 61 62 63 64 65 66 67 68 69 70 71 72 73 74 75 76 77 78 79 80 81 82 83 84 85 86 87 88 89 90 91 93 94 95 96 97 98 99 100 101 102 103 104 105 106 107 108 109 110 111 112 113 114 115 116 117 118 119 120 121 122 0
-1 -2 3 0
1 -3 0
2 -3 0
-4 -2 5 0
4 -5 0
2 -5 0
6 7 8 0
-6 -8 0
-7 -8 0
8 -2 9 0
-8 -9 0
2 -9 0
5 9 10 0
-5 -10 0
-9 -10 0
-11 -2 12 0
11 -12 0
2 -12 0
-10 12 13 0
10 -13 0
-12 -13 0
-13 14 15 0
13 -15 0
-14 -15 0
15 -2 16 0
-15 -16 0
2 -16 0
3 16 17 0
-3 -17 0
-16 -17 0
17 -18 19 0
-17 -19 0
18 -19 0
-17 18 20 0
17 -20 0
-18 -20 0
19 20 21 0
-19 -21 0
-20 -21 0
-22 -23 24 0
22 -24 0
23 -24 0
-24 -25 26 0
24 -26 0
25 -26 0
-26 -27 28 0
26 -28 0
27 -28 0
-28 -29 30 0
28 -30 0
29 -30 0
-30 -31 32 0
30 -32 0
31 -32 0
32 33 34 0
-32 -34 0
-33 -34 0
-32 -33 35 0
32 -35 0
33 -35 0
34 35 36 0
-34 -36 0
-35 -36 0
-21 -36 37 0
21 -37 0
36 -37 0
-6 22 38 0
6 -38 0
-22 -38 0
-6 -2 39 0
6 -39 0
2 -39 0
-39 7 40 0
39 -40 0
-7 -40 0
39 -7 41 0
-39 -41 0
7 -41 0
40 41 42 0
-40 -42 0
-41 -42 0
22 23 43 0
-22 -43 0
-23 -43 0
43 24 44 0
-43 -44 0
-24 -44 0
-42 44 45 0
42 -45 0
-44 -45 0
42 -44 46 0
-42 -46 0
44 -46 0
45 46 47 0
-45 -47 0
-46 -47 0
-38 -47 48 0
38 -48 0
47 -48 0
48 46 49 0
-48 -49 0
-46 -49 0
9 4 50 0
-9 -50 0
-4 -50 0
-5 8 51 0
5 -51 0
-8 -51 0
50 51 52 0
-50 -52 0
-51 -52 0
24 25 53 0
-24 -53 0
-25 -53 0
53 26 54 0
-53 -54 0
-26 -54 0
52 54 55 0
-52 -55 0
-54 -55 0
-52 -54 56 0
52 -56 0
54 -56 0
55 56 57 0
-55 -57 0
-56 -57 0
49 -57 58 0
-49 -58 0
57 -58 0
58 56 59 0
-58 -59 0
-56 -59 0
10 11 60 0
-10 -60 0
-11 -60 0
-10 -11 61 0
10 -61 0
11 -61 0
60 61 62 0
-60 -62 0
-61 -62 0
26 27 63 0
-26 -63 0
-27 -63 0
63 28 64 0
-63 -64 0
-28 -64 0
-62 64 65 0
62 -65 0
-64 -65 0
62 -64 66 0
-62 -66 0
64 -66 0
65 66 67 0
-65 -67 0
-66 -67 0
59 -67 68 0
-59 -68 0
67 -68 0
68 66 69 0
-68 -69 0
-66 -69 0
13 -14 70 0
-13 -70 0
14 -70 0
70 15 71 0
-70 -71 0
-15 -71 0
28 29 72 0
-28 -72 0
-29 -72 0
72 30 73 0
-72 -73 0
-30 -73 0
71 73 74 0
-71 -74 0
-73 -74 0
-71 -73 75 0
71 -75 0
73 -75 0
74 75 76 0
-74 -76 0
-75 -76 0
69 -76 77 0
-69 -77 0
76 -77 0
77 75 78 0
-77 -78 0
-75 -78 0
16 -1 79 0
-16 -79 0
1 -79 0
-16 1 80 0
16 -80 0
-1 -80 0
79 80 81 0
-79 -81 0
-80 -81 0
30 31 82 0
-30 -82 0
-31 -82 0
82 32 83 0
-82 -83 0
-32 -83 0
-81 83 84 0
81 -84 0
-83 -84 0
81 -83 85 0
-81 -85 0
83 -85 0
84 85 86 0
-84 -86 0
-85 -86 0
78 -86 87 0
-78 -87 0
86 -87 0
87 85 88 0
-87 -88 0
-85 -88 0
37 -88 89 0
-37 -89 0
88 -89 0
21 36 90 0
-21 -90 0
-36 -90 0
89 90 91 0
-89 -91 0
-90 -91 0
-35 92 93 0
35 -93 0
-92 -93 0
35 -92 94 0
-35 -94 0
92 -94 0
93 94 95 0
-93 -95 0
-94 -95 0
-20 -2 96 0
20 -96 0
2 -96 0
95 -96 97 0
-95 -97 0
96 -97 0
-95 96 98 0
95 -98 0
-96 -98 0
97 98 99 0
-97 -99 0
-98 -99 0
91 -99 100 0
-91 -100 0
99 -100 0
-91 99 101 0
91 -101 0
-99 -101 0
100 101 102 0
-100 -102 0
-101 -102 0
38 47 103 0
-38 -103 0
-47 -103 0
103 48 104 0
-103 -104 0
-48 -104 0
-69 76 105 0
69 -105 0
-76 -105 0
105 77 106 0
-105 -106 0
-77 -106 0
104 106 107 0
-104 -107 0
-106 -107 0
-78 86 108 0
78 -108 0
-86 -108 0
108 87 109 0
-108 -109 0
-87 -109 0
-107 109 110 0
107 -110 0
-109 -110 0
-49 57 111 0
49 -111 0
-57 -111 0
111 58 112 0
-111 -112 0
-58 -112 0
-110 112 113 0
110 -113 0
-112 -113 0
90 99 114 0
-90 -114 0
-99 -114 0
-59 67 115 0
59 -115 0
-67 -115 0
115 68 116 0
-115 -116 0
-68 -116 0
114 116 117 0
-114 -117 0
-116 -117 0
-99 37 118 0
99 -118 0
-37 -118 0
118 88 119 0
-118 -119 0
-88 -119 0
-117 119 120 0
117 -120 0
-119 -120 0
-113 -120 121 0
113 -121 0
120 -121 0
-102 121 122 0
102 -122 0
-121 -122 0
-122 0
